c Instancia generada aleatoriamente
p edge 50 308
e 1 9
e 1 14
e 1 17
e 1 19
e 1 22
e 1 31
e 1 33
e 1 41
e 1 42
e 1 46
e 1 47
e 1 48
e 1 50
e 2 8
e 2 10
e 2 14
e 2 20
e 2 23
e 2 25
e 2 29
e 2 35
e 2 39
e 2 41
e 2 42
e 2 48
e 3 4
e 3 8
e 3 11
e 3 12
e 3 13
e 3 16
e 3 21
e 3 25
e 3 26
e 3 30
e 3 31
e 3 45
e 4 7
e 4 8
e 4 11
e 4 18
e 4 22
e 4 23
e 4 32
e 4 35
e 4 49
e 5 9
e 5 17
e 5 19
e 5 30
e 5 31
e 5 33
e 5 35
e 5 42
e 5 47
e 5 48
e 5 50
e 6 9
e 6 10
e 6 11
e 6 14
e 6 16
e 6 19
e 6 22
e 6 35
e 6 40
e 6 44
e 6 46
e 6 47
e 6 49
e 6 50
e 7 19
e 7 21
e 7 30
e 7 37
e 7 39
e 7 40
e 7 44
e 7 46
e 8 15
e 8 16
e 8 19
e 8 20
e 8 21
e 8 24
e 8 25
e 8 26
e 8 27
e 8 31
e 8 36
e 8 37
e 8 38
e 8 40
e 8 48
e 9 10
e 9 13
e 9 16
e 9 17
e 9 19
e 9 21
e 9 23
e 9 34
e 9 37
e 9 50
e 10 12
e 10 13
e 10 25
e 10 26
e 10 30
e 10 35
e 10 48
e 10 50
e 11 19
e 11 20
e 11 27
e 11 33
e 11 34
e 11 39
e 11 43
e 11 48
e 11 49
e 12 18
e 12 21
e 12 23
e 12 29
e 12 36
e 12 41
e 12 46
e 13 17
e 13 18
e 13 25
e 13 27
e 13 29
e 13 34
e 13 38
e 13 40
e 13 42
e 13 47
e 13 50
e 14 21
e 14 26
e 14 29
e 14 32
e 14 34
e 14 35
e 14 37
e 14 41
e 14 44
e 15 19
e 15 24
e 15 25
e 15 28
e 15 29
e 15 30
e 15 31
e 15 35
e 15 38
e 15 41
e 15 47
e 15 50
e 16 21
e 16 22
e 16 26
e 16 31
e 16 42
e 16 46
e 17 21
e 17 32
e 17 38
e 17 45
e 17 47
e 17 50
e 18 19
e 18 20
e 18 28
e 18 36
e 18 44
e 18 45
e 18 46
e 18 50
e 19 20
e 19 24
e 19 25
e 19 27
e 19 29
e 19 30
e 19 32
e 19 33
e 19 34
e 19 35
e 19 36
e 19 39
e 19 42
e 19 43
e 19 49
e 20 25
e 20 28
e 20 29
e 20 31
e 20 39
e 20 44
e 20 45
e 20 49
e 20 50
e 21 24
e 21 25
e 21 39
e 21 42
e 21 48
e 22 24
e 22 26
e 22 28
e 22 30
e 22 31
e 22 35
e 22 36
e 22 39
e 22 43
e 22 45
e 22 48
e 22 50
e 23 25
e 23 32
e 23 33
e 23 34
e 23 36
e 23 39
e 23 47
e 23 50
e 24 25
e 24 28
e 24 32
e 24 33
e 24 38
e 24 43
e 24 47
e 24 48
e 25 27
e 25 36
e 25 41
e 26 29
e 26 35
e 26 36
e 26 50
e 27 30
e 27 35
e 27 50
e 28 34
e 28 35
e 28 36
e 28 38
e 28 39
e 29 38
e 29 40
e 30 31
e 30 34
e 30 36
e 30 38
e 30 43
e 30 44
e 30 47
e 31 32
e 31 34
e 31 36
e 31 45
e 31 46
e 31 50
e 32 34
e 32 38
e 32 39
e 32 46
e 32 48
e 32 49
e 33 36
e 33 40
e 33 47
e 34 35
e 34 41
e 34 43
e 34 46
e 34 50
e 35 36
e 35 38
e 35 47
e 35 48
e 36 48
e 37 39
e 37 42
e 38 41
e 38 42
e 38 47
e 40 43
e 41 45
e 41 50
e 42 44
e 42 45
e 42 47
e 43 45
e 43 49
e 44 45
e 44 48
e 44 49
e 45 47
e 45 49
e 45 50
e 47 48
e 48 50
e 49 50
